120 5
10 10 10 10 10 

0 0 0 0 0 0 1 2 
0 0 0 0 0 0 3 3 5 12 
5 0 0 1 0 0 1 4 
4 0 0 9 0 0 3 11 8 6 
9 0 0 6 0 0 3 11 10 7 
5 0 0 4 0 0 2 10 7 
1 0 0 6 0 0 1 9 
2 0 0 2 0 0 1 9 
7 0 0 7 0 0 1 13 
8 0 0 6 0 0 1 13 
5 0 0 4 0 0 1 13 
2 0 0 5 0 0 1 13 
0 0 0 0 0 0 2 14 26 
0 0 0 0 0 0 4 15 17 18 24 
2 0 0 0 1 0 1 16 
9 0 0 0 7 0 1 19 
2 0 0 0 6 0 1 19 
1 0 0 0 7 0 2 23 22 
5 0 0 0 5 0 1 20 
7 0 0 0 3 0 1 21 
6 0 0 0 3 0 1 25 
1 0 0 0 6 0 1 25 
5 0 0 0 6 0 1 25 
8 0 0 0 6 0 1 25 
0 0 0 0 0 0 3 48 60 72 
0 0 0 0 0 0 7 27 41 42 43 44 45 46 
5 0 1 0 0 1 1 28 
8 0 4 0 0 5 2 40 29 
8 0 5 0 0 10 4 39 38 37 30 
6 0 4 0 0 6 1 31 
1 0 6 0 0 6 1 32 
6 0 2 0 0 6 1 33 
9 0 6 0 0 4 1 34 
9 0 6 0 0 4 1 35 
5 0 2 0 0 4 1 36 
9 0 4 0 0 3 1 47 
3 0 6 0 0 9 1 47 
10 0 5 0 0 2 1 47 
5 0 6 0 0 5 1 47 
10 0 7 0 0 2 1 47 
5 0 7 0 0 4 1 47 
7 0 7 0 0 4 1 47 
8 0 6 0 0 6 1 47 
8 0 6 0 0 7 1 47 
4 0 2 0 0 6 1 47 
6 0 8 0 0 6 1 47 
0 0 0 0 0 0 1 84 
0 0 0 0 0 0 2 49 51 
9 0 0 0 1 0 2 53 50 
8 0 0 0 3 0 2 54 52 
7 0 0 0 5 0 1 52 
3 0 0 0 7 0 2 56 55 
8 0 0 0 5 0 2 58 54 
3 0 0 0 10 0 1 55 
2 0 0 0 3 0 1 57 
1 0 0 0 6 0 1 58 
1 0 0 0 5 0 1 59 
1 0 0 0 5 0 1 59 
0 0 0 0 0 0 1 84 
0 0 0 0 0 0 4 61 62 63 64 
6 0 1 0 0 0 3 70 69 66 
4 0 8 0 0 0 2 69 65 
6 0 4 0 0 0 2 69 66 
2 0 5 0 0 0 2 69 67 
3 0 4 0 0 0 1 66 
4 0 5 0 0 0 1 67 
10 0 4 0 0 0 1 68 
3 0 8 0 0 0 1 71 
2 0 3 0 0 0 1 71 
1 0 8 0 0 0 1 71 
0 0 0 0 0 0 1 84 
0 0 0 0 0 0 4 73 74 75 76 
5 0 0 0 0 1 2 79 77 
1 0 0 0 0 7 2 81 78 
9 0 0 0 0 7 2 81 80 
3 0 0 0 0 3 2 81 80 
4 0 0 0 0 7 1 78 
9 0 0 0 0 8 1 80 
9 0 0 0 0 4 1 81 
3 0 0 0 0 3 1 82 
6 0 0 0 0 3 1 82 
8 0 0 0 0 7 1 83 
0 0 0 0 0 0 1 84 
0 0 0 0 0 0 2 85 97 
0 0 0 0 0 0 2 86 87 
4 0 1 0 0 0 2 90 88 
7 0 5 0 0 0 1 88 
2 0 8 0 0 0 2 91 89 
1 0 7 0 0 0 2 93 92 
2 0 6 0 0 0 2 95 93 
3 0 2 0 0 0 1 92 
4 0 9 0 0 0 2 95 94 
6 0 4 0 0 0 1 94 
10 0 5 0 0 0 1 96 
4 0 3 0 0 0 1 96 
0 0 0 0 0 0 1 109 
0 0 0 0 0 0 4 98 102 106 107 
10 0 0 0 1 0 1 99 
6 0 0 0 8 0 3 105 104 100 
3 0 0 0 5 0 1 101 
3 0 0 0 5 0 1 103 
9 0 0 0 8 0 1 103 
2 0 0 0 4 0 1 108 
3 0 0 0 5 0 1 108 
3 0 0 0 3 0 1 108 
7 0 0 0 7 0 1 108 
9 0 0 0 4 0 1 108 
0 0 0 0 0 0 1 109 
0 0 0 0 0 0 3 110 111 112 
3 1 0 0 0 0 2 118 113 
4 5 0 0 0 0 3 118 115 114 
4 10 0 0 0 0 3 118 116 114 
6 5 0 0 0 0 2 115 114 
5 8 0 0 0 0 1 117 
9 6 0 0 0 0 1 116 
10 2 0 0 0 0 1 119 
3 4 0 0 0 0 1 119 
1 6 0 0 0 0 1 119 
10 3 0 0 0 0 1 120 
0 0 0 0 0 0 0 
